p cnf 1350 1600
99 100 1 151 152 0
99 100 1 151 -152 0
99 100 1 -151 153 0
99 100 1 -151 -153 0
-99 -100 1 154 155 0
-99 -100 1 154 -155 0
-99 -100 1 -154 156 0
-99 -100 1 -154 -156 0
99 -100 -1 157 158 0
99 -100 -1 157 -158 0
99 -100 -1 -157 159 0
99 -100 -1 -157 -159 0
-99 100 -1 160 161 0
-99 100 -1 160 -161 0
-99 100 -1 -160 162 0
-99 100 -1 -160 -162 0
1 101 2 163 164 0
1 101 2 163 -164 0
1 101 2 -163 165 0
1 101 2 -163 -165 0
-1 -101 2 166 167 0
-1 -101 2 166 -167 0
-1 -101 2 -166 168 0
-1 -101 2 -166 -168 0
1 -101 -2 169 170 0
1 -101 -2 169 -170 0
1 -101 -2 -169 171 0
1 -101 -2 -169 -171 0
-1 101 -2 172 173 0
-1 101 -2 172 -173 0
-1 101 -2 -172 174 0
-1 101 -2 -172 -174 0
2 102 3 175 176 0
2 102 3 175 -176 0
2 102 3 -175 177 0
2 102 3 -175 -177 0
-2 -102 3 178 179 0
-2 -102 3 178 -179 0
-2 -102 3 -178 180 0
-2 -102 3 -178 -180 0
2 -102 -3 181 182 0
2 -102 -3 181 -182 0
2 -102 -3 -181 183 0
2 -102 -3 -181 -183 0
-2 102 -3 184 185 0
-2 102 -3 184 -185 0
-2 102 -3 -184 186 0
-2 102 -3 -184 -186 0
3 103 4 187 188 0
3 103 4 187 -188 0
3 103 4 -187 189 0
3 103 4 -187 -189 0
-3 -103 4 190 191 0
-3 -103 4 190 -191 0
-3 -103 4 -190 192 0
-3 -103 4 -190 -192 0
3 -103 -4 193 194 0
3 -103 -4 193 -194 0
3 -103 -4 -193 195 0
3 -103 -4 -193 -195 0
-3 103 -4 196 197 0
-3 103 -4 196 -197 0
-3 103 -4 -196 198 0
-3 103 -4 -196 -198 0
4 104 5 199 200 0
4 104 5 199 -200 0
4 104 5 -199 201 0
4 104 5 -199 -201 0
-4 -104 5 202 203 0
-4 -104 5 202 -203 0
-4 -104 5 -202 204 0
-4 -104 5 -202 -204 0
4 -104 -5 205 206 0
4 -104 -5 205 -206 0
4 -104 -5 -205 207 0
4 -104 -5 -205 -207 0
-4 104 -5 208 209 0
-4 104 -5 208 -209 0
-4 104 -5 -208 210 0
-4 104 -5 -208 -210 0
5 105 6 211 212 0
5 105 6 211 -212 0
5 105 6 -211 213 0
5 105 6 -211 -213 0
-5 -105 6 214 215 0
-5 -105 6 214 -215 0
-5 -105 6 -214 216 0
-5 -105 6 -214 -216 0
5 -105 -6 217 218 0
5 -105 -6 217 -218 0
5 -105 -6 -217 219 0
5 -105 -6 -217 -219 0
-5 105 -6 220 221 0
-5 105 -6 220 -221 0
-5 105 -6 -220 222 0
-5 105 -6 -220 -222 0
6 106 7 223 224 0
6 106 7 223 -224 0
6 106 7 -223 225 0
6 106 7 -223 -225 0
-6 -106 7 226 227 0
-6 -106 7 226 -227 0
-6 -106 7 -226 228 0
-6 -106 7 -226 -228 0
6 -106 -7 229 230 0
6 -106 -7 229 -230 0
6 -106 -7 -229 231 0
6 -106 -7 -229 -231 0
-6 106 -7 232 233 0
-6 106 -7 232 -233 0
-6 106 -7 -232 234 0
-6 106 -7 -232 -234 0
7 107 8 235 236 0
7 107 8 235 -236 0
7 107 8 -235 237 0
7 107 8 -235 -237 0
-7 -107 8 238 239 0
-7 -107 8 238 -239 0
-7 -107 8 -238 240 0
-7 -107 8 -238 -240 0
7 -107 -8 241 242 0
7 -107 -8 241 -242 0
7 -107 -8 -241 243 0
7 -107 -8 -241 -243 0
-7 107 -8 244 245 0
-7 107 -8 244 -245 0
-7 107 -8 -244 246 0
-7 107 -8 -244 -246 0
8 108 9 247 248 0
8 108 9 247 -248 0
8 108 9 -247 249 0
8 108 9 -247 -249 0
-8 -108 9 250 251 0
-8 -108 9 250 -251 0
-8 -108 9 -250 252 0
-8 -108 9 -250 -252 0
8 -108 -9 253 254 0
8 -108 -9 253 -254 0
8 -108 -9 -253 255 0
8 -108 -9 -253 -255 0
-8 108 -9 256 257 0
-8 108 -9 256 -257 0
-8 108 -9 -256 258 0
-8 108 -9 -256 -258 0
9 109 10 259 260 0
9 109 10 259 -260 0
9 109 10 -259 261 0
9 109 10 -259 -261 0
-9 -109 10 262 263 0
-9 -109 10 262 -263 0
-9 -109 10 -262 264 0
-9 -109 10 -262 -264 0
9 -109 -10 265 266 0
9 -109 -10 265 -266 0
9 -109 -10 -265 267 0
9 -109 -10 -265 -267 0
-9 109 -10 268 269 0
-9 109 -10 268 -269 0
-9 109 -10 -268 270 0
-9 109 -10 -268 -270 0
10 110 11 271 272 0
10 110 11 271 -272 0
10 110 11 -271 273 0
10 110 11 -271 -273 0
-10 -110 11 274 275 0
-10 -110 11 274 -275 0
-10 -110 11 -274 276 0
-10 -110 11 -274 -276 0
10 -110 -11 277 278 0
10 -110 -11 277 -278 0
10 -110 -11 -277 279 0
10 -110 -11 -277 -279 0
-10 110 -11 280 281 0
-10 110 -11 280 -281 0
-10 110 -11 -280 282 0
-10 110 -11 -280 -282 0
11 111 12 283 284 0
11 111 12 283 -284 0
11 111 12 -283 285 0
11 111 12 -283 -285 0
-11 -111 12 286 287 0
-11 -111 12 286 -287 0
-11 -111 12 -286 288 0
-11 -111 12 -286 -288 0
11 -111 -12 289 290 0
11 -111 -12 289 -290 0
11 -111 -12 -289 291 0
11 -111 -12 -289 -291 0
-11 111 -12 292 293 0
-11 111 -12 292 -293 0
-11 111 -12 -292 294 0
-11 111 -12 -292 -294 0
12 112 13 295 296 0
12 112 13 295 -296 0
12 112 13 -295 297 0
12 112 13 -295 -297 0
-12 -112 13 298 299 0
-12 -112 13 298 -299 0
-12 -112 13 -298 300 0
-12 -112 13 -298 -300 0
12 -112 -13 301 302 0
12 -112 -13 301 -302 0
12 -112 -13 -301 303 0
12 -112 -13 -301 -303 0
-12 112 -13 304 305 0
-12 112 -13 304 -305 0
-12 112 -13 -304 306 0
-12 112 -13 -304 -306 0
13 113 14 307 308 0
13 113 14 307 -308 0
13 113 14 -307 309 0
13 113 14 -307 -309 0
-13 -113 14 310 311 0
-13 -113 14 310 -311 0
-13 -113 14 -310 312 0
-13 -113 14 -310 -312 0
13 -113 -14 313 314 0
13 -113 -14 313 -314 0
13 -113 -14 -313 315 0
13 -113 -14 -313 -315 0
-13 113 -14 316 317 0
-13 113 -14 316 -317 0
-13 113 -14 -316 318 0
-13 113 -14 -316 -318 0
14 114 15 319 320 0
14 114 15 319 -320 0
14 114 15 -319 321 0
14 114 15 -319 -321 0
-14 -114 15 322 323 0
-14 -114 15 322 -323 0
-14 -114 15 -322 324 0
-14 -114 15 -322 -324 0
14 -114 -15 325 326 0
14 -114 -15 325 -326 0
14 -114 -15 -325 327 0
14 -114 -15 -325 -327 0
-14 114 -15 328 329 0
-14 114 -15 328 -329 0
-14 114 -15 -328 330 0
-14 114 -15 -328 -330 0
15 115 16 331 332 0
15 115 16 331 -332 0
15 115 16 -331 333 0
15 115 16 -331 -333 0
-15 -115 16 334 335 0
-15 -115 16 334 -335 0
-15 -115 16 -334 336 0
-15 -115 16 -334 -336 0
15 -115 -16 337 338 0
15 -115 -16 337 -338 0
15 -115 -16 -337 339 0
15 -115 -16 -337 -339 0
-15 115 -16 340 341 0
-15 115 -16 340 -341 0
-15 115 -16 -340 342 0
-15 115 -16 -340 -342 0
16 116 17 343 344 0
16 116 17 343 -344 0
16 116 17 -343 345 0
16 116 17 -343 -345 0
-16 -116 17 346 347 0
-16 -116 17 346 -347 0
-16 -116 17 -346 348 0
-16 -116 17 -346 -348 0
16 -116 -17 349 350 0
16 -116 -17 349 -350 0
16 -116 -17 -349 351 0
16 -116 -17 -349 -351 0
-16 116 -17 352 353 0
-16 116 -17 352 -353 0
-16 116 -17 -352 354 0
-16 116 -17 -352 -354 0
17 117 18 355 356 0
17 117 18 355 -356 0
17 117 18 -355 357 0
17 117 18 -355 -357 0
-17 -117 18 358 359 0
-17 -117 18 358 -359 0
-17 -117 18 -358 360 0
-17 -117 18 -358 -360 0
17 -117 -18 361 362 0
17 -117 -18 361 -362 0
17 -117 -18 -361 363 0
17 -117 -18 -361 -363 0
-17 117 -18 364 365 0
-17 117 -18 364 -365 0
-17 117 -18 -364 366 0
-17 117 -18 -364 -366 0
18 118 19 367 368 0
18 118 19 367 -368 0
18 118 19 -367 369 0
18 118 19 -367 -369 0
-18 -118 19 370 371 0
-18 -118 19 370 -371 0
-18 -118 19 -370 372 0
-18 -118 19 -370 -372 0
18 -118 -19 373 374 0
18 -118 -19 373 -374 0
18 -118 -19 -373 375 0
18 -118 -19 -373 -375 0
-18 118 -19 376 377 0
-18 118 -19 376 -377 0
-18 118 -19 -376 378 0
-18 118 -19 -376 -378 0
19 119 20 379 380 0
19 119 20 379 -380 0
19 119 20 -379 381 0
19 119 20 -379 -381 0
-19 -119 20 382 383 0
-19 -119 20 382 -383 0
-19 -119 20 -382 384 0
-19 -119 20 -382 -384 0
19 -119 -20 385 386 0
19 -119 -20 385 -386 0
19 -119 -20 -385 387 0
19 -119 -20 -385 -387 0
-19 119 -20 388 389 0
-19 119 -20 388 -389 0
-19 119 -20 -388 390 0
-19 119 -20 -388 -390 0
20 120 21 391 392 0
20 120 21 391 -392 0
20 120 21 -391 393 0
20 120 21 -391 -393 0
-20 -120 21 394 395 0
-20 -120 21 394 -395 0
-20 -120 21 -394 396 0
-20 -120 21 -394 -396 0
20 -120 -21 397 398 0
20 -120 -21 397 -398 0
20 -120 -21 -397 399 0
20 -120 -21 -397 -399 0
-20 120 -21 400 401 0
-20 120 -21 400 -401 0
-20 120 -21 -400 402 0
-20 120 -21 -400 -402 0
21 121 22 403 404 0
21 121 22 403 -404 0
21 121 22 -403 405 0
21 121 22 -403 -405 0
-21 -121 22 406 407 0
-21 -121 22 406 -407 0
-21 -121 22 -406 408 0
-21 -121 22 -406 -408 0
21 -121 -22 409 410 0
21 -121 -22 409 -410 0
21 -121 -22 -409 411 0
21 -121 -22 -409 -411 0
-21 121 -22 412 413 0
-21 121 -22 412 -413 0
-21 121 -22 -412 414 0
-21 121 -22 -412 -414 0
22 122 23 415 416 0
22 122 23 415 -416 0
22 122 23 -415 417 0
22 122 23 -415 -417 0
-22 -122 23 418 419 0
-22 -122 23 418 -419 0
-22 -122 23 -418 420 0
-22 -122 23 -418 -420 0
22 -122 -23 421 422 0
22 -122 -23 421 -422 0
22 -122 -23 -421 423 0
22 -122 -23 -421 -423 0
-22 122 -23 424 425 0
-22 122 -23 424 -425 0
-22 122 -23 -424 426 0
-22 122 -23 -424 -426 0
23 123 24 427 428 0
23 123 24 427 -428 0
23 123 24 -427 429 0
23 123 24 -427 -429 0
-23 -123 24 430 431 0
-23 -123 24 430 -431 0
-23 -123 24 -430 432 0
-23 -123 24 -430 -432 0
23 -123 -24 433 434 0
23 -123 -24 433 -434 0
23 -123 -24 -433 435 0
23 -123 -24 -433 -435 0
-23 123 -24 436 437 0
-23 123 -24 436 -437 0
-23 123 -24 -436 438 0
-23 123 -24 -436 -438 0
24 124 25 439 440 0
24 124 25 439 -440 0
24 124 25 -439 441 0
24 124 25 -439 -441 0
-24 -124 25 442 443 0
-24 -124 25 442 -443 0
-24 -124 25 -442 444 0
-24 -124 25 -442 -444 0
24 -124 -25 445 446 0
24 -124 -25 445 -446 0
24 -124 -25 -445 447 0
24 -124 -25 -445 -447 0
-24 124 -25 448 449 0
-24 124 -25 448 -449 0
-24 124 -25 -448 450 0
-24 124 -25 -448 -450 0
25 125 26 451 452 0
25 125 26 451 -452 0
25 125 26 -451 453 0
25 125 26 -451 -453 0
-25 -125 26 454 455 0
-25 -125 26 454 -455 0
-25 -125 26 -454 456 0
-25 -125 26 -454 -456 0
25 -125 -26 457 458 0
25 -125 -26 457 -458 0
25 -125 -26 -457 459 0
25 -125 -26 -457 -459 0
-25 125 -26 460 461 0
-25 125 -26 460 -461 0
-25 125 -26 -460 462 0
-25 125 -26 -460 -462 0
26 126 27 463 464 0
26 126 27 463 -464 0
26 126 27 -463 465 0
26 126 27 -463 -465 0
-26 -126 27 466 467 0
-26 -126 27 466 -467 0
-26 -126 27 -466 468 0
-26 -126 27 -466 -468 0
26 -126 -27 469 470 0
26 -126 -27 469 -470 0
26 -126 -27 -469 471 0
26 -126 -27 -469 -471 0
-26 126 -27 472 473 0
-26 126 -27 472 -473 0
-26 126 -27 -472 474 0
-26 126 -27 -472 -474 0
27 127 28 475 476 0
27 127 28 475 -476 0
27 127 28 -475 477 0
27 127 28 -475 -477 0
-27 -127 28 478 479 0
-27 -127 28 478 -479 0
-27 -127 28 -478 480 0
-27 -127 28 -478 -480 0
27 -127 -28 481 482 0
27 -127 -28 481 -482 0
27 -127 -28 -481 483 0
27 -127 -28 -481 -483 0
-27 127 -28 484 485 0
-27 127 -28 484 -485 0
-27 127 -28 -484 486 0
-27 127 -28 -484 -486 0
28 128 29 487 488 0
28 128 29 487 -488 0
28 128 29 -487 489 0
28 128 29 -487 -489 0
-28 -128 29 490 491 0
-28 -128 29 490 -491 0
-28 -128 29 -490 492 0
-28 -128 29 -490 -492 0
28 -128 -29 493 494 0
28 -128 -29 493 -494 0
28 -128 -29 -493 495 0
28 -128 -29 -493 -495 0
-28 128 -29 496 497 0
-28 128 -29 496 -497 0
-28 128 -29 -496 498 0
-28 128 -29 -496 -498 0
29 129 30 499 500 0
29 129 30 499 -500 0
29 129 30 -499 501 0
29 129 30 -499 -501 0
-29 -129 30 502 503 0
-29 -129 30 502 -503 0
-29 -129 30 -502 504 0
-29 -129 30 -502 -504 0
29 -129 -30 505 506 0
29 -129 -30 505 -506 0
29 -129 -30 -505 507 0
29 -129 -30 -505 -507 0
-29 129 -30 508 509 0
-29 129 -30 508 -509 0
-29 129 -30 -508 510 0
-29 129 -30 -508 -510 0
30 130 31 511 512 0
30 130 31 511 -512 0
30 130 31 -511 513 0
30 130 31 -511 -513 0
-30 -130 31 514 515 0
-30 -130 31 514 -515 0
-30 -130 31 -514 516 0
-30 -130 31 -514 -516 0
30 -130 -31 517 518 0
30 -130 -31 517 -518 0
30 -130 -31 -517 519 0
30 -130 -31 -517 -519 0
-30 130 -31 520 521 0
-30 130 -31 520 -521 0
-30 130 -31 -520 522 0
-30 130 -31 -520 -522 0
31 131 32 523 524 0
31 131 32 523 -524 0
31 131 32 -523 525 0
31 131 32 -523 -525 0
-31 -131 32 526 527 0
-31 -131 32 526 -527 0
-31 -131 32 -526 528 0
-31 -131 32 -526 -528 0
31 -131 -32 529 530 0
31 -131 -32 529 -530 0
31 -131 -32 -529 531 0
31 -131 -32 -529 -531 0
-31 131 -32 532 533 0
-31 131 -32 532 -533 0
-31 131 -32 -532 534 0
-31 131 -32 -532 -534 0
32 132 33 535 536 0
32 132 33 535 -536 0
32 132 33 -535 537 0
32 132 33 -535 -537 0
-32 -132 33 538 539 0
-32 -132 33 538 -539 0
-32 -132 33 -538 540 0
-32 -132 33 -538 -540 0
32 -132 -33 541 542 0
32 -132 -33 541 -542 0
32 -132 -33 -541 543 0
32 -132 -33 -541 -543 0
-32 132 -33 544 545 0
-32 132 -33 544 -545 0
-32 132 -33 -544 546 0
-32 132 -33 -544 -546 0
33 133 34 547 548 0
33 133 34 547 -548 0
33 133 34 -547 549 0
33 133 34 -547 -549 0
-33 -133 34 550 551 0
-33 -133 34 550 -551 0
-33 -133 34 -550 552 0
-33 -133 34 -550 -552 0
33 -133 -34 553 554 0
33 -133 -34 553 -554 0
33 -133 -34 -553 555 0
33 -133 -34 -553 -555 0
-33 133 -34 556 557 0
-33 133 -34 556 -557 0
-33 133 -34 -556 558 0
-33 133 -34 -556 -558 0
34 134 35 559 560 0
34 134 35 559 -560 0
34 134 35 -559 561 0
34 134 35 -559 -561 0
-34 -134 35 562 563 0
-34 -134 35 562 -563 0
-34 -134 35 -562 564 0
-34 -134 35 -562 -564 0
34 -134 -35 565 566 0
34 -134 -35 565 -566 0
34 -134 -35 -565 567 0
34 -134 -35 -565 -567 0
-34 134 -35 568 569 0
-34 134 -35 568 -569 0
-34 134 -35 -568 570 0
-34 134 -35 -568 -570 0
35 135 36 571 572 0
35 135 36 571 -572 0
35 135 36 -571 573 0
35 135 36 -571 -573 0
-35 -135 36 574 575 0
-35 -135 36 574 -575 0
-35 -135 36 -574 576 0
-35 -135 36 -574 -576 0
35 -135 -36 577 578 0
35 -135 -36 577 -578 0
35 -135 -36 -577 579 0
35 -135 -36 -577 -579 0
-35 135 -36 580 581 0
-35 135 -36 580 -581 0
-35 135 -36 -580 582 0
-35 135 -36 -580 -582 0
36 136 37 583 584 0
36 136 37 583 -584 0
36 136 37 -583 585 0
36 136 37 -583 -585 0
-36 -136 37 586 587 0
-36 -136 37 586 -587 0
-36 -136 37 -586 588 0
-36 -136 37 -586 -588 0
36 -136 -37 589 590 0
36 -136 -37 589 -590 0
36 -136 -37 -589 591 0
36 -136 -37 -589 -591 0
-36 136 -37 592 593 0
-36 136 -37 592 -593 0
-36 136 -37 -592 594 0
-36 136 -37 -592 -594 0
37 137 38 595 596 0
37 137 38 595 -596 0
37 137 38 -595 597 0
37 137 38 -595 -597 0
-37 -137 38 598 599 0
-37 -137 38 598 -599 0
-37 -137 38 -598 600 0
-37 -137 38 -598 -600 0
37 -137 -38 601 602 0
37 -137 -38 601 -602 0
37 -137 -38 -601 603 0
37 -137 -38 -601 -603 0
-37 137 -38 604 605 0
-37 137 -38 604 -605 0
-37 137 -38 -604 606 0
-37 137 -38 -604 -606 0
38 138 39 607 608 0
38 138 39 607 -608 0
38 138 39 -607 609 0
38 138 39 -607 -609 0
-38 -138 39 610 611 0
-38 -138 39 610 -611 0
-38 -138 39 -610 612 0
-38 -138 39 -610 -612 0
38 -138 -39 613 614 0
38 -138 -39 613 -614 0
38 -138 -39 -613 615 0
38 -138 -39 -613 -615 0
-38 138 -39 616 617 0
-38 138 -39 616 -617 0
-38 138 -39 -616 618 0
-38 138 -39 -616 -618 0
39 139 40 619 620 0
39 139 40 619 -620 0
39 139 40 -619 621 0
39 139 40 -619 -621 0
-39 -139 40 622 623 0
-39 -139 40 622 -623 0
-39 -139 40 -622 624 0
-39 -139 40 -622 -624 0
39 -139 -40 625 626 0
39 -139 -40 625 -626 0
39 -139 -40 -625 627 0
39 -139 -40 -625 -627 0
-39 139 -40 628 629 0
-39 139 -40 628 -629 0
-39 139 -40 -628 630 0
-39 139 -40 -628 -630 0
40 140 41 631 632 0
40 140 41 631 -632 0
40 140 41 -631 633 0
40 140 41 -631 -633 0
-40 -140 41 634 635 0
-40 -140 41 634 -635 0
-40 -140 41 -634 636 0
-40 -140 41 -634 -636 0
40 -140 -41 637 638 0
40 -140 -41 637 -638 0
40 -140 -41 -637 639 0
40 -140 -41 -637 -639 0
-40 140 -41 640 641 0
-40 140 -41 640 -641 0
-40 140 -41 -640 642 0
-40 140 -41 -640 -642 0
41 141 42 643 644 0
41 141 42 643 -644 0
41 141 42 -643 645 0
41 141 42 -643 -645 0
-41 -141 42 646 647 0
-41 -141 42 646 -647 0
-41 -141 42 -646 648 0
-41 -141 42 -646 -648 0
41 -141 -42 649 650 0
41 -141 -42 649 -650 0
41 -141 -42 -649 651 0
41 -141 -42 -649 -651 0
-41 141 -42 652 653 0
-41 141 -42 652 -653 0
-41 141 -42 -652 654 0
-41 141 -42 -652 -654 0
42 142 43 655 656 0
42 142 43 655 -656 0
42 142 43 -655 657 0
42 142 43 -655 -657 0
-42 -142 43 658 659 0
-42 -142 43 658 -659 0
-42 -142 43 -658 660 0
-42 -142 43 -658 -660 0
42 -142 -43 661 662 0
42 -142 -43 661 -662 0
42 -142 -43 -661 663 0
42 -142 -43 -661 -663 0
-42 142 -43 664 665 0
-42 142 -43 664 -665 0
-42 142 -43 -664 666 0
-42 142 -43 -664 -666 0
43 143 44 667 668 0
43 143 44 667 -668 0
43 143 44 -667 669 0
43 143 44 -667 -669 0
-43 -143 44 670 671 0
-43 -143 44 670 -671 0
-43 -143 44 -670 672 0
-43 -143 44 -670 -672 0
43 -143 -44 673 674 0
43 -143 -44 673 -674 0
43 -143 -44 -673 675 0
43 -143 -44 -673 -675 0
-43 143 -44 676 677 0
-43 143 -44 676 -677 0
-43 143 -44 -676 678 0
-43 143 -44 -676 -678 0
44 144 45 679 680 0
44 144 45 679 -680 0
44 144 45 -679 681 0
44 144 45 -679 -681 0
-44 -144 45 682 683 0
-44 -144 45 682 -683 0
-44 -144 45 -682 684 0
-44 -144 45 -682 -684 0
44 -144 -45 685 686 0
44 -144 -45 685 -686 0
44 -144 -45 -685 687 0
44 -144 -45 -685 -687 0
-44 144 -45 688 689 0
-44 144 -45 688 -689 0
-44 144 -45 -688 690 0
-44 144 -45 -688 -690 0
45 145 46 691 692 0
45 145 46 691 -692 0
45 145 46 -691 693 0
45 145 46 -691 -693 0
-45 -145 46 694 695 0
-45 -145 46 694 -695 0
-45 -145 46 -694 696 0
-45 -145 46 -694 -696 0
45 -145 -46 697 698 0
45 -145 -46 697 -698 0
45 -145 -46 -697 699 0
45 -145 -46 -697 -699 0
-45 145 -46 700 701 0
-45 145 -46 700 -701 0
-45 145 -46 -700 702 0
-45 145 -46 -700 -702 0
46 146 47 703 704 0
46 146 47 703 -704 0
46 146 47 -703 705 0
46 146 47 -703 -705 0
-46 -146 47 706 707 0
-46 -146 47 706 -707 0
-46 -146 47 -706 708 0
-46 -146 47 -706 -708 0
46 -146 -47 709 710 0
46 -146 -47 709 -710 0
46 -146 -47 -709 711 0
46 -146 -47 -709 -711 0
-46 146 -47 712 713 0
-46 146 -47 712 -713 0
-46 146 -47 -712 714 0
-46 146 -47 -712 -714 0
47 147 48 715 716 0
47 147 48 715 -716 0
47 147 48 -715 717 0
47 147 48 -715 -717 0
-47 -147 48 718 719 0
-47 -147 48 718 -719 0
-47 -147 48 -718 720 0
-47 -147 48 -718 -720 0
47 -147 -48 721 722 0
47 -147 -48 721 -722 0
47 -147 -48 -721 723 0
47 -147 -48 -721 -723 0
-47 147 -48 724 725 0
-47 147 -48 724 -725 0
-47 147 -48 -724 726 0
-47 147 -48 -724 -726 0
48 148 49 727 728 0
48 148 49 727 -728 0
48 148 49 -727 729 0
48 148 49 -727 -729 0
-48 -148 49 730 731 0
-48 -148 49 730 -731 0
-48 -148 49 -730 732 0
-48 -148 49 -730 -732 0
48 -148 -49 733 734 0
48 -148 -49 733 -734 0
48 -148 -49 -733 735 0
48 -148 -49 -733 -735 0
-48 148 -49 736 737 0
-48 148 -49 736 -737 0
-48 148 -49 -736 738 0
-48 148 -49 -736 -738 0
49 149 150 739 740 0
49 149 150 739 -740 0
49 149 150 -739 741 0
49 149 150 -739 -741 0
-49 -149 150 742 743 0
-49 -149 150 742 -743 0
-49 -149 150 -742 744 0
-49 -149 150 -742 -744 0
49 -149 -150 745 746 0
49 -149 -150 745 -746 0
49 -149 -150 -745 747 0
49 -149 -150 -745 -747 0
-49 149 -150 748 749 0
-49 149 -150 748 -749 0
-49 149 -150 -748 750 0
-49 149 -150 -748 -750 0
50 149 150 751 752 0
50 149 150 751 -752 0
50 149 150 -751 753 0
50 149 150 -751 -753 0
-50 -149 150 754 755 0
-50 -149 150 754 -755 0
-50 -149 150 -754 756 0
-50 -149 150 -754 -756 0
50 -149 -150 757 758 0
50 -149 -150 757 -758 0
50 -149 -150 -757 759 0
50 -149 -150 -757 -759 0
-50 149 -150 760 761 0
-50 149 -150 760 -761 0
-50 149 -150 -760 762 0
-50 149 -150 -760 -762 0
51 148 50 763 764 0
51 148 50 763 -764 0
51 148 50 -763 765 0
51 148 50 -763 -765 0
-51 -148 50 766 767 0
-51 -148 50 766 -767 0
-51 -148 50 -766 768 0
-51 -148 50 -766 -768 0
51 -148 -50 769 770 0
51 -148 -50 769 -770 0
51 -148 -50 -769 771 0
51 -148 -50 -769 -771 0
-51 148 -50 772 773 0
-51 148 -50 772 -773 0
-51 148 -50 -772 774 0
-51 148 -50 -772 -774 0
52 147 51 775 776 0
52 147 51 775 -776 0
52 147 51 -775 777 0
52 147 51 -775 -777 0
-52 -147 51 778 779 0
-52 -147 51 778 -779 0
-52 -147 51 -778 780 0
-52 -147 51 -778 -780 0
52 -147 -51 781 782 0
52 -147 -51 781 -782 0
52 -147 -51 -781 783 0
52 -147 -51 -781 -783 0
-52 147 -51 784 785 0
-52 147 -51 784 -785 0
-52 147 -51 -784 786 0
-52 147 -51 -784 -786 0
53 146 52 787 788 0
53 146 52 787 -788 0
53 146 52 -787 789 0
53 146 52 -787 -789 0
-53 -146 52 790 791 0
-53 -146 52 790 -791 0
-53 -146 52 -790 792 0
-53 -146 52 -790 -792 0
53 -146 -52 793 794 0
53 -146 -52 793 -794 0
53 -146 -52 -793 795 0
53 -146 -52 -793 -795 0
-53 146 -52 796 797 0
-53 146 -52 796 -797 0
-53 146 -52 -796 798 0
-53 146 -52 -796 -798 0
54 145 53 799 800 0
54 145 53 799 -800 0
54 145 53 -799 801 0
54 145 53 -799 -801 0
-54 -145 53 802 803 0
-54 -145 53 802 -803 0
-54 -145 53 -802 804 0
-54 -145 53 -802 -804 0
54 -145 -53 805 806 0
54 -145 -53 805 -806 0
54 -145 -53 -805 807 0
54 -145 -53 -805 -807 0
-54 145 -53 808 809 0
-54 145 -53 808 -809 0
-54 145 -53 -808 810 0
-54 145 -53 -808 -810 0
55 144 54 811 812 0
55 144 54 811 -812 0
55 144 54 -811 813 0
55 144 54 -811 -813 0
-55 -144 54 814 815 0
-55 -144 54 814 -815 0
-55 -144 54 -814 816 0
-55 -144 54 -814 -816 0
55 -144 -54 817 818 0
55 -144 -54 817 -818 0
55 -144 -54 -817 819 0
55 -144 -54 -817 -819 0
-55 144 -54 820 821 0
-55 144 -54 820 -821 0
-55 144 -54 -820 822 0
-55 144 -54 -820 -822 0
56 143 55 823 824 0
56 143 55 823 -824 0
56 143 55 -823 825 0
56 143 55 -823 -825 0
-56 -143 55 826 827 0
-56 -143 55 826 -827 0
-56 -143 55 -826 828 0
-56 -143 55 -826 -828 0
56 -143 -55 829 830 0
56 -143 -55 829 -830 0
56 -143 -55 -829 831 0
56 -143 -55 -829 -831 0
-56 143 -55 832 833 0
-56 143 -55 832 -833 0
-56 143 -55 -832 834 0
-56 143 -55 -832 -834 0
57 142 56 835 836 0
57 142 56 835 -836 0
57 142 56 -835 837 0
57 142 56 -835 -837 0
-57 -142 56 838 839 0
-57 -142 56 838 -839 0
-57 -142 56 -838 840 0
-57 -142 56 -838 -840 0
57 -142 -56 841 842 0
57 -142 -56 841 -842 0
57 -142 -56 -841 843 0
57 -142 -56 -841 -843 0
-57 142 -56 844 845 0
-57 142 -56 844 -845 0
-57 142 -56 -844 846 0
-57 142 -56 -844 -846 0
58 141 57 847 848 0
58 141 57 847 -848 0
58 141 57 -847 849 0
58 141 57 -847 -849 0
-58 -141 57 850 851 0
-58 -141 57 850 -851 0
-58 -141 57 -850 852 0
-58 -141 57 -850 -852 0
58 -141 -57 853 854 0
58 -141 -57 853 -854 0
58 -141 -57 -853 855 0
58 -141 -57 -853 -855 0
-58 141 -57 856 857 0
-58 141 -57 856 -857 0
-58 141 -57 -856 858 0
-58 141 -57 -856 -858 0
59 140 58 859 860 0
59 140 58 859 -860 0
59 140 58 -859 861 0
59 140 58 -859 -861 0
-59 -140 58 862 863 0
-59 -140 58 862 -863 0
-59 -140 58 -862 864 0
-59 -140 58 -862 -864 0
59 -140 -58 865 866 0
59 -140 -58 865 -866 0
59 -140 -58 -865 867 0
59 -140 -58 -865 -867 0
-59 140 -58 868 869 0
-59 140 -58 868 -869 0
-59 140 -58 -868 870 0
-59 140 -58 -868 -870 0
60 139 59 871 872 0
60 139 59 871 -872 0
60 139 59 -871 873 0
60 139 59 -871 -873 0
-60 -139 59 874 875 0
-60 -139 59 874 -875 0
-60 -139 59 -874 876 0
-60 -139 59 -874 -876 0
60 -139 -59 877 878 0
60 -139 -59 877 -878 0
60 -139 -59 -877 879 0
60 -139 -59 -877 -879 0
-60 139 -59 880 881 0
-60 139 -59 880 -881 0
-60 139 -59 -880 882 0
-60 139 -59 -880 -882 0
61 138 60 883 884 0
61 138 60 883 -884 0
61 138 60 -883 885 0
61 138 60 -883 -885 0
-61 -138 60 886 887 0
-61 -138 60 886 -887 0
-61 -138 60 -886 888 0
-61 -138 60 -886 -888 0
61 -138 -60 889 890 0
61 -138 -60 889 -890 0
61 -138 -60 -889 891 0
61 -138 -60 -889 -891 0
-61 138 -60 892 893 0
-61 138 -60 892 -893 0
-61 138 -60 -892 894 0
-61 138 -60 -892 -894 0
62 137 61 895 896 0
62 137 61 895 -896 0
62 137 61 -895 897 0
62 137 61 -895 -897 0
-62 -137 61 898 899 0
-62 -137 61 898 -899 0
-62 -137 61 -898 900 0
-62 -137 61 -898 -900 0
62 -137 -61 901 902 0
62 -137 -61 901 -902 0
62 -137 -61 -901 903 0
62 -137 -61 -901 -903 0
-62 137 -61 904 905 0
-62 137 -61 904 -905 0
-62 137 -61 -904 906 0
-62 137 -61 -904 -906 0
63 136 62 907 908 0
63 136 62 907 -908 0
63 136 62 -907 909 0
63 136 62 -907 -909 0
-63 -136 62 910 911 0
-63 -136 62 910 -911 0
-63 -136 62 -910 912 0
-63 -136 62 -910 -912 0
63 -136 -62 913 914 0
63 -136 -62 913 -914 0
63 -136 -62 -913 915 0
63 -136 -62 -913 -915 0
-63 136 -62 916 917 0
-63 136 -62 916 -917 0
-63 136 -62 -916 918 0
-63 136 -62 -916 -918 0
64 135 63 919 920 0
64 135 63 919 -920 0
64 135 63 -919 921 0
64 135 63 -919 -921 0
-64 -135 63 922 923 0
-64 -135 63 922 -923 0
-64 -135 63 -922 924 0
-64 -135 63 -922 -924 0
64 -135 -63 925 926 0
64 -135 -63 925 -926 0
64 -135 -63 -925 927 0
64 -135 -63 -925 -927 0
-64 135 -63 928 929 0
-64 135 -63 928 -929 0
-64 135 -63 -928 930 0
-64 135 -63 -928 -930 0
65 134 64 931 932 0
65 134 64 931 -932 0
65 134 64 -931 933 0
65 134 64 -931 -933 0
-65 -134 64 934 935 0
-65 -134 64 934 -935 0
-65 -134 64 -934 936 0
-65 -134 64 -934 -936 0
65 -134 -64 937 938 0
65 -134 -64 937 -938 0
65 -134 -64 -937 939 0
65 -134 -64 -937 -939 0
-65 134 -64 940 941 0
-65 134 -64 940 -941 0
-65 134 -64 -940 942 0
-65 134 -64 -940 -942 0
66 133 65 943 944 0
66 133 65 943 -944 0
66 133 65 -943 945 0
66 133 65 -943 -945 0
-66 -133 65 946 947 0
-66 -133 65 946 -947 0
-66 -133 65 -946 948 0
-66 -133 65 -946 -948 0
66 -133 -65 949 950 0
66 -133 -65 949 -950 0
66 -133 -65 -949 951 0
66 -133 -65 -949 -951 0
-66 133 -65 952 953 0
-66 133 -65 952 -953 0
-66 133 -65 -952 954 0
-66 133 -65 -952 -954 0
67 132 66 955 956 0
67 132 66 955 -956 0
67 132 66 -955 957 0
67 132 66 -955 -957 0
-67 -132 66 958 959 0
-67 -132 66 958 -959 0
-67 -132 66 -958 960 0
-67 -132 66 -958 -960 0
67 -132 -66 961 962 0
67 -132 -66 961 -962 0
67 -132 -66 -961 963 0
67 -132 -66 -961 -963 0
-67 132 -66 964 965 0
-67 132 -66 964 -965 0
-67 132 -66 -964 966 0
-67 132 -66 -964 -966 0
68 131 67 967 968 0
68 131 67 967 -968 0
68 131 67 -967 969 0
68 131 67 -967 -969 0
-68 -131 67 970 971 0
-68 -131 67 970 -971 0
-68 -131 67 -970 972 0
-68 -131 67 -970 -972 0
68 -131 -67 973 974 0
68 -131 -67 973 -974 0
68 -131 -67 -973 975 0
68 -131 -67 -973 -975 0
-68 131 -67 976 977 0
-68 131 -67 976 -977 0
-68 131 -67 -976 978 0
-68 131 -67 -976 -978 0
69 130 68 979 980 0
69 130 68 979 -980 0
69 130 68 -979 981 0
69 130 68 -979 -981 0
-69 -130 68 982 983 0
-69 -130 68 982 -983 0
-69 -130 68 -982 984 0
-69 -130 68 -982 -984 0
69 -130 -68 985 986 0
69 -130 -68 985 -986 0
69 -130 -68 -985 987 0
69 -130 -68 -985 -987 0
-69 130 -68 988 989 0
-69 130 -68 988 -989 0
-69 130 -68 -988 990 0
-69 130 -68 -988 -990 0
70 129 69 991 992 0
70 129 69 991 -992 0
70 129 69 -991 993 0
70 129 69 -991 -993 0
-70 -129 69 994 995 0
-70 -129 69 994 -995 0
-70 -129 69 -994 996 0
-70 -129 69 -994 -996 0
70 -129 -69 997 998 0
70 -129 -69 997 -998 0
70 -129 -69 -997 999 0
70 -129 -69 -997 -999 0
-70 129 -69 1000 1001 0
-70 129 -69 1000 -1001 0
-70 129 -69 -1000 1002 0
-70 129 -69 -1000 -1002 0
71 128 70 1003 1004 0
71 128 70 1003 -1004 0
71 128 70 -1003 1005 0
71 128 70 -1003 -1005 0
-71 -128 70 1006 1007 0
-71 -128 70 1006 -1007 0
-71 -128 70 -1006 1008 0
-71 -128 70 -1006 -1008 0
71 -128 -70 1009 1010 0
71 -128 -70 1009 -1010 0
71 -128 -70 -1009 1011 0
71 -128 -70 -1009 -1011 0
-71 128 -70 1012 1013 0
-71 128 -70 1012 -1013 0
-71 128 -70 -1012 1014 0
-71 128 -70 -1012 -1014 0
72 127 71 1015 1016 0
72 127 71 1015 -1016 0
72 127 71 -1015 1017 0
72 127 71 -1015 -1017 0
-72 -127 71 1018 1019 0
-72 -127 71 1018 -1019 0
-72 -127 71 -1018 1020 0
-72 -127 71 -1018 -1020 0
72 -127 -71 1021 1022 0
72 -127 -71 1021 -1022 0
72 -127 -71 -1021 1023 0
72 -127 -71 -1021 -1023 0
-72 127 -71 1024 1025 0
-72 127 -71 1024 -1025 0
-72 127 -71 -1024 1026 0
-72 127 -71 -1024 -1026 0
73 126 72 1027 1028 0
73 126 72 1027 -1028 0
73 126 72 -1027 1029 0
73 126 72 -1027 -1029 0
-73 -126 72 1030 1031 0
-73 -126 72 1030 -1031 0
-73 -126 72 -1030 1032 0
-73 -126 72 -1030 -1032 0
73 -126 -72 1033 1034 0
73 -126 -72 1033 -1034 0
73 -126 -72 -1033 1035 0
73 -126 -72 -1033 -1035 0
-73 126 -72 1036 1037 0
-73 126 -72 1036 -1037 0
-73 126 -72 -1036 1038 0
-73 126 -72 -1036 -1038 0
74 125 73 1039 1040 0
74 125 73 1039 -1040 0
74 125 73 -1039 1041 0
74 125 73 -1039 -1041 0
-74 -125 73 1042 1043 0
-74 -125 73 1042 -1043 0
-74 -125 73 -1042 1044 0
-74 -125 73 -1042 -1044 0
74 -125 -73 1045 1046 0
74 -125 -73 1045 -1046 0
74 -125 -73 -1045 1047 0
74 -125 -73 -1045 -1047 0
-74 125 -73 1048 1049 0
-74 125 -73 1048 -1049 0
-74 125 -73 -1048 1050 0
-74 125 -73 -1048 -1050 0
75 124 74 1051 1052 0
75 124 74 1051 -1052 0
75 124 74 -1051 1053 0
75 124 74 -1051 -1053 0
-75 -124 74 1054 1055 0
-75 -124 74 1054 -1055 0
-75 -124 74 -1054 1056 0
-75 -124 74 -1054 -1056 0
75 -124 -74 1057 1058 0
75 -124 -74 1057 -1058 0
75 -124 -74 -1057 1059 0
75 -124 -74 -1057 -1059 0
-75 124 -74 1060 1061 0
-75 124 -74 1060 -1061 0
-75 124 -74 -1060 1062 0
-75 124 -74 -1060 -1062 0
76 123 75 1063 1064 0
76 123 75 1063 -1064 0
76 123 75 -1063 1065 0
76 123 75 -1063 -1065 0
-76 -123 75 1066 1067 0
-76 -123 75 1066 -1067 0
-76 -123 75 -1066 1068 0
-76 -123 75 -1066 -1068 0
76 -123 -75 1069 1070 0
76 -123 -75 1069 -1070 0
76 -123 -75 -1069 1071 0
76 -123 -75 -1069 -1071 0
-76 123 -75 1072 1073 0
-76 123 -75 1072 -1073 0
-76 123 -75 -1072 1074 0
-76 123 -75 -1072 -1074 0
77 122 76 1075 1076 0
77 122 76 1075 -1076 0
77 122 76 -1075 1077 0
77 122 76 -1075 -1077 0
-77 -122 76 1078 1079 0
-77 -122 76 1078 -1079 0
-77 -122 76 -1078 1080 0
-77 -122 76 -1078 -1080 0
77 -122 -76 1081 1082 0
77 -122 -76 1081 -1082 0
77 -122 -76 -1081 1083 0
77 -122 -76 -1081 -1083 0
-77 122 -76 1084 1085 0
-77 122 -76 1084 -1085 0
-77 122 -76 -1084 1086 0
-77 122 -76 -1084 -1086 0
78 121 77 1087 1088 0
78 121 77 1087 -1088 0
78 121 77 -1087 1089 0
78 121 77 -1087 -1089 0
-78 -121 77 1090 1091 0
-78 -121 77 1090 -1091 0
-78 -121 77 -1090 1092 0
-78 -121 77 -1090 -1092 0
78 -121 -77 1093 1094 0
78 -121 -77 1093 -1094 0
78 -121 -77 -1093 1095 0
78 -121 -77 -1093 -1095 0
-78 121 -77 1096 1097 0
-78 121 -77 1096 -1097 0
-78 121 -77 -1096 1098 0
-78 121 -77 -1096 -1098 0
79 120 78 1099 1100 0
79 120 78 1099 -1100 0
79 120 78 -1099 1101 0
79 120 78 -1099 -1101 0
-79 -120 78 1102 1103 0
-79 -120 78 1102 -1103 0
-79 -120 78 -1102 1104 0
-79 -120 78 -1102 -1104 0
79 -120 -78 1105 1106 0
79 -120 -78 1105 -1106 0
79 -120 -78 -1105 1107 0
79 -120 -78 -1105 -1107 0
-79 120 -78 1108 1109 0
-79 120 -78 1108 -1109 0
-79 120 -78 -1108 1110 0
-79 120 -78 -1108 -1110 0
80 119 79 1111 1112 0
80 119 79 1111 -1112 0
80 119 79 -1111 1113 0
80 119 79 -1111 -1113 0
-80 -119 79 1114 1115 0
-80 -119 79 1114 -1115 0
-80 -119 79 -1114 1116 0
-80 -119 79 -1114 -1116 0
80 -119 -79 1117 1118 0
80 -119 -79 1117 -1118 0
80 -119 -79 -1117 1119 0
80 -119 -79 -1117 -1119 0
-80 119 -79 1120 1121 0
-80 119 -79 1120 -1121 0
-80 119 -79 -1120 1122 0
-80 119 -79 -1120 -1122 0
81 118 80 1123 1124 0
81 118 80 1123 -1124 0
81 118 80 -1123 1125 0
81 118 80 -1123 -1125 0
-81 -118 80 1126 1127 0
-81 -118 80 1126 -1127 0
-81 -118 80 -1126 1128 0
-81 -118 80 -1126 -1128 0
81 -118 -80 1129 1130 0
81 -118 -80 1129 -1130 0
81 -118 -80 -1129 1131 0
81 -118 -80 -1129 -1131 0
-81 118 -80 1132 1133 0
-81 118 -80 1132 -1133 0
-81 118 -80 -1132 1134 0
-81 118 -80 -1132 -1134 0
82 117 81 1135 1136 0
82 117 81 1135 -1136 0
82 117 81 -1135 1137 0
82 117 81 -1135 -1137 0
-82 -117 81 1138 1139 0
-82 -117 81 1138 -1139 0
-82 -117 81 -1138 1140 0
-82 -117 81 -1138 -1140 0
82 -117 -81 1141 1142 0
82 -117 -81 1141 -1142 0
82 -117 -81 -1141 1143 0
82 -117 -81 -1141 -1143 0
-82 117 -81 1144 1145 0
-82 117 -81 1144 -1145 0
-82 117 -81 -1144 1146 0
-82 117 -81 -1144 -1146 0
83 116 82 1147 1148 0
83 116 82 1147 -1148 0
83 116 82 -1147 1149 0
83 116 82 -1147 -1149 0
-83 -116 82 1150 1151 0
-83 -116 82 1150 -1151 0
-83 -116 82 -1150 1152 0
-83 -116 82 -1150 -1152 0
83 -116 -82 1153 1154 0
83 -116 -82 1153 -1154 0
83 -116 -82 -1153 1155 0
83 -116 -82 -1153 -1155 0
-83 116 -82 1156 1157 0
-83 116 -82 1156 -1157 0
-83 116 -82 -1156 1158 0
-83 116 -82 -1156 -1158 0
84 115 83 1159 1160 0
84 115 83 1159 -1160 0
84 115 83 -1159 1161 0
84 115 83 -1159 -1161 0
-84 -115 83 1162 1163 0
-84 -115 83 1162 -1163 0
-84 -115 83 -1162 1164 0
-84 -115 83 -1162 -1164 0
84 -115 -83 1165 1166 0
84 -115 -83 1165 -1166 0
84 -115 -83 -1165 1167 0
84 -115 -83 -1165 -1167 0
-84 115 -83 1168 1169 0
-84 115 -83 1168 -1169 0
-84 115 -83 -1168 1170 0
-84 115 -83 -1168 -1170 0
85 114 84 1171 1172 0
85 114 84 1171 -1172 0
85 114 84 -1171 1173 0
85 114 84 -1171 -1173 0
-85 -114 84 1174 1175 0
-85 -114 84 1174 -1175 0
-85 -114 84 -1174 1176 0
-85 -114 84 -1174 -1176 0
85 -114 -84 1177 1178 0
85 -114 -84 1177 -1178 0
85 -114 -84 -1177 1179 0
85 -114 -84 -1177 -1179 0
-85 114 -84 1180 1181 0
-85 114 -84 1180 -1181 0
-85 114 -84 -1180 1182 0
-85 114 -84 -1180 -1182 0
86 113 85 1183 1184 0
86 113 85 1183 -1184 0
86 113 85 -1183 1185 0
86 113 85 -1183 -1185 0
-86 -113 85 1186 1187 0
-86 -113 85 1186 -1187 0
-86 -113 85 -1186 1188 0
-86 -113 85 -1186 -1188 0
86 -113 -85 1189 1190 0
86 -113 -85 1189 -1190 0
86 -113 -85 -1189 1191 0
86 -113 -85 -1189 -1191 0
-86 113 -85 1192 1193 0
-86 113 -85 1192 -1193 0
-86 113 -85 -1192 1194 0
-86 113 -85 -1192 -1194 0
87 112 86 1195 1196 0
87 112 86 1195 -1196 0
87 112 86 -1195 1197 0
87 112 86 -1195 -1197 0
-87 -112 86 1198 1199 0
-87 -112 86 1198 -1199 0
-87 -112 86 -1198 1200 0
-87 -112 86 -1198 -1200 0
87 -112 -86 1201 1202 0
87 -112 -86 1201 -1202 0
87 -112 -86 -1201 1203 0
87 -112 -86 -1201 -1203 0
-87 112 -86 1204 1205 0
-87 112 -86 1204 -1205 0
-87 112 -86 -1204 1206 0
-87 112 -86 -1204 -1206 0
88 111 87 1207 1208 0
88 111 87 1207 -1208 0
88 111 87 -1207 1209 0
88 111 87 -1207 -1209 0
-88 -111 87 1210 1211 0
-88 -111 87 1210 -1211 0
-88 -111 87 -1210 1212 0
-88 -111 87 -1210 -1212 0
88 -111 -87 1213 1214 0
88 -111 -87 1213 -1214 0
88 -111 -87 -1213 1215 0
88 -111 -87 -1213 -1215 0
-88 111 -87 1216 1217 0
-88 111 -87 1216 -1217 0
-88 111 -87 -1216 1218 0
-88 111 -87 -1216 -1218 0
89 110 88 1219 1220 0
89 110 88 1219 -1220 0
89 110 88 -1219 1221 0
89 110 88 -1219 -1221 0
-89 -110 88 1222 1223 0
-89 -110 88 1222 -1223 0
-89 -110 88 -1222 1224 0
-89 -110 88 -1222 -1224 0
89 -110 -88 1225 1226 0
89 -110 -88 1225 -1226 0
89 -110 -88 -1225 1227 0
89 -110 -88 -1225 -1227 0
-89 110 -88 1228 1229 0
-89 110 -88 1228 -1229 0
-89 110 -88 -1228 1230 0
-89 110 -88 -1228 -1230 0
90 109 89 1231 1232 0
90 109 89 1231 -1232 0
90 109 89 -1231 1233 0
90 109 89 -1231 -1233 0
-90 -109 89 1234 1235 0
-90 -109 89 1234 -1235 0
-90 -109 89 -1234 1236 0
-90 -109 89 -1234 -1236 0
90 -109 -89 1237 1238 0
90 -109 -89 1237 -1238 0
90 -109 -89 -1237 1239 0
90 -109 -89 -1237 -1239 0
-90 109 -89 1240 1241 0
-90 109 -89 1240 -1241 0
-90 109 -89 -1240 1242 0
-90 109 -89 -1240 -1242 0
91 108 90 1243 1244 0
91 108 90 1243 -1244 0
91 108 90 -1243 1245 0
91 108 90 -1243 -1245 0
-91 -108 90 1246 1247 0
-91 -108 90 1246 -1247 0
-91 -108 90 -1246 1248 0
-91 -108 90 -1246 -1248 0
91 -108 -90 1249 1250 0
91 -108 -90 1249 -1250 0
91 -108 -90 -1249 1251 0
91 -108 -90 -1249 -1251 0
-91 108 -90 1252 1253 0
-91 108 -90 1252 -1253 0
-91 108 -90 -1252 1254 0
-91 108 -90 -1252 -1254 0
92 107 91 1255 1256 0
92 107 91 1255 -1256 0
92 107 91 -1255 1257 0
92 107 91 -1255 -1257 0
-92 -107 91 1258 1259 0
-92 -107 91 1258 -1259 0
-92 -107 91 -1258 1260 0
-92 -107 91 -1258 -1260 0
92 -107 -91 1261 1262 0
92 -107 -91 1261 -1262 0
92 -107 -91 -1261 1263 0
92 -107 -91 -1261 -1263 0
-92 107 -91 1264 1265 0
-92 107 -91 1264 -1265 0
-92 107 -91 -1264 1266 0
-92 107 -91 -1264 -1266 0
93 106 92 1267 1268 0
93 106 92 1267 -1268 0
93 106 92 -1267 1269 0
93 106 92 -1267 -1269 0
-93 -106 92 1270 1271 0
-93 -106 92 1270 -1271 0
-93 -106 92 -1270 1272 0
-93 -106 92 -1270 -1272 0
93 -106 -92 1273 1274 0
93 -106 -92 1273 -1274 0
93 -106 -92 -1273 1275 0
93 -106 -92 -1273 -1275 0
-93 106 -92 1276 1277 0
-93 106 -92 1276 -1277 0
-93 106 -92 -1276 1278 0
-93 106 -92 -1276 -1278 0
94 105 93 1279 1280 0
94 105 93 1279 -1280 0
94 105 93 -1279 1281 0
94 105 93 -1279 -1281 0
-94 -105 93 1282 1283 0
-94 -105 93 1282 -1283 0
-94 -105 93 -1282 1284 0
-94 -105 93 -1282 -1284 0
94 -105 -93 1285 1286 0
94 -105 -93 1285 -1286 0
94 -105 -93 -1285 1287 0
94 -105 -93 -1285 -1287 0
-94 105 -93 1288 1289 0
-94 105 -93 1288 -1289 0
-94 105 -93 -1288 1290 0
-94 105 -93 -1288 -1290 0
95 104 94 1291 1292 0
95 104 94 1291 -1292 0
95 104 94 -1291 1293 0
95 104 94 -1291 -1293 0
-95 -104 94 1294 1295 0
-95 -104 94 1294 -1295 0
-95 -104 94 -1294 1296 0
-95 -104 94 -1294 -1296 0
95 -104 -94 1297 1298 0
95 -104 -94 1297 -1298 0
95 -104 -94 -1297 1299 0
95 -104 -94 -1297 -1299 0
-95 104 -94 1300 1301 0
-95 104 -94 1300 -1301 0
-95 104 -94 -1300 1302 0
-95 104 -94 -1300 -1302 0
96 103 95 1303 1304 0
96 103 95 1303 -1304 0
96 103 95 -1303 1305 0
96 103 95 -1303 -1305 0
-96 -103 95 1306 1307 0
-96 -103 95 1306 -1307 0
-96 -103 95 -1306 1308 0
-96 -103 95 -1306 -1308 0
96 -103 -95 1309 1310 0
96 -103 -95 1309 -1310 0
96 -103 -95 -1309 1311 0
96 -103 -95 -1309 -1311 0
-96 103 -95 1312 1313 0
-96 103 -95 1312 -1313 0
-96 103 -95 -1312 1314 0
-96 103 -95 -1312 -1314 0
97 102 96 1315 1316 0
97 102 96 1315 -1316 0
97 102 96 -1315 1317 0
97 102 96 -1315 -1317 0
-97 -102 96 1318 1319 0
-97 -102 96 1318 -1319 0
-97 -102 96 -1318 1320 0
-97 -102 96 -1318 -1320 0
97 -102 -96 1321 1322 0
97 -102 -96 1321 -1322 0
97 -102 -96 -1321 1323 0
97 -102 -96 -1321 -1323 0
-97 102 -96 1324 1325 0
-97 102 -96 1324 -1325 0
-97 102 -96 -1324 1326 0
-97 102 -96 -1324 -1326 0
98 101 97 1327 1328 0
98 101 97 1327 -1328 0
98 101 97 -1327 1329 0
98 101 97 -1327 -1329 0
-98 -101 97 1330 1331 0
-98 -101 97 1330 -1331 0
-98 -101 97 -1330 1332 0
-98 -101 97 -1330 -1332 0
98 -101 -97 1333 1334 0
98 -101 -97 1333 -1334 0
98 -101 -97 -1333 1335 0
98 -101 -97 -1333 -1335 0
-98 101 -97 1336 1337 0
-98 101 -97 1336 -1337 0
-98 101 -97 -1336 1338 0
-98 101 -97 -1336 -1338 0
99 100 -98 1339 1340 0
99 100 -98 1339 -1340 0
99 100 -98 -1339 1341 0
99 100 -98 -1339 -1341 0
-99 -100 -98 1342 1343 0
-99 -100 -98 1342 -1343 0
-99 -100 -98 -1342 1344 0
-99 -100 -98 -1342 -1344 0
99 -100 98 1345 1346 0
99 -100 98 1345 -1346 0
99 -100 98 -1345 1347 0
99 -100 98 -1345 -1347 0
-99 100 98 1348 1349 0
-99 100 98 1348 -1349 0
-99 100 98 -1348 1350 0
-99 100 98 -1348 -1350 0

